*SENSE:Minimize
NAME          MODEL
ROWS
 N  OBJ
 G  C0000000
 G  C0000001
 G  C0000002
 G  C0000003
 G  C0000004
 G  C0000005
 G  C0000006
 G  C0000007
 G  C0000008
 G  C0000009
 G  C0000010
 G  C0000011
 G  C0000012
 G  C0000013
 G  C0000014
COLUMNS
    X0000000  C0000000   1.425010000000e+03
    X0000000  OBJ        1.425010000000e+03
    X0000001  C0000001   1.200000000000e+02
    X0000001  OBJ        1.200000000000e+02
    X0000002  C0000002   1.134400000000e+02
    X0000002  OBJ        1.134400000000e+02
    X0000003  C0000003   1.050500000000e+02
    X0000003  OBJ        1.050500000000e+02
    X0000004  C0000004   1.193000000000e+02
    X0000004  OBJ        1.193000000000e+02
    X0000005  C0000005   9.329000000000e+01
    X0000005  OBJ        9.329000000000e+01
    X0000006  C0000006   1.396700000000e+02
    X0000006  OBJ        1.396700000000e+02
    X0000007  C0000007   8.736000000000e+01
    X0000007  OBJ        8.736000000000e+01
    X0000008  C0000008   1.058800000000e+02
    X0000008  OBJ        1.058800000000e+02
    X0000009  C0000009   1.527700000000e+02
    X0000009  OBJ        1.527700000000e+02
    X0000010  C0000010   1.730000000000e+02
    X0000010  OBJ        1.730000000000e+02
    X0000011  C0000011   2.549900000000e+02
    X0000011  OBJ        2.549900000000e+02
    X0000012  C0000012   1.115500000000e+02
    X0000012  OBJ        1.115500000000e+02
    X0000013  C0000013   1.050000000000e+02
    X0000013  OBJ        1.050000000000e+02
    X0000014  C0000014   1.505000000000e+02
    X0000014  OBJ        1.505000000000e+02
RHS
    RHS       C0000000   9.194536128868e-02
    RHS       C0000001   1.224904436252e-01
    RHS       C0000002   1.716685639039e-02
    RHS       C0000003   1.036519372795e-01
    RHS       C0000004   7.965362096258e-02
    RHS       C0000005   9.552546004786e-03
    RHS       C0000006   2.005211873476e-02
    RHS       C0000007   1.350759723178e-02
    RHS       C0000008   6.429440424473e-02
    RHS       C0000009   4.252591565904e-02
    RHS       C0000010   3.016439520599e-02
    RHS       C0000011   1.176822364373e-01
    RHS       C0000012   9.595805788079e-02
    RHS       C0000013   5.478237773047e-02
    RHS       C0000014   1.365721313240e-01
BOUNDS
ENDATA
